NAME: line_50_0
TYPE: TSP
COMMENT: line_50_0
DIMENSION: 50
EDGE_WEIGHT_TYPE: EUC_2D
NODE_COORD_SECTION
1 0.0 465.0
2 0.0 419.0
3 0.0 211.0
4 0.0 449.0
5 0.0 416.0
6 0.0 263.0
7 0.0 92.0
8 0.0 61.0
9 0.0 75.0
10 0.0 163.0
11 0.0 214.0
12 0.0 163.0
13 0.0 198.0
14 0.0 223.0
15 0.0 429.0
16 0.0 448.0
17 0.0 395.0
18 0.0 211.0
19 0.0 259.0
20 0.0 156.0
21 0.0 445.0
22 0.0 303.0
23 0.0 192.0
24 0.0 187.0
25 0.0 59.0
26 0.0 169.0
27 0.0 178.0
28 0.0 302.0
29 0.0 457.0
30 0.0 111.0
31 0.0 283.0
32 0.0 157.0
33 0.0 119.0
34 0.0 288.0
35 0.0 351.0
36 0.0 231.0
37 0.0 25.0
38 0.0 280.0
39 0.0 341.0
40 0.0 367.0
41 0.0 287.0
42 0.0 452.0
43 0.0 424.0
44 0.0 145.0
45 0.0 144.0
46 0.0 36.0
47 0.0 486.0
48 0.0 104.0
49 0.0 395.0
50 0.0 379.0
